100
1000
164
161
161
161
159
159
159
159
158
158
157
157
157
156
155
154
151
150
150
149
149
148
148
148
148
147
147
146
146
145
143
139
139
138
137
136
136
136
134
133
131
131
128
128
127
127
127
126
121
120
120
119
118
118
118
114
112
112
112
111
110
110
107
106
104
104
103
102
101
99
97
94
94
94
91
91
89
87
83
82
82
80
79
79
77
76
72
72
72
70
69
69
68
67
67
64
62
61
58
57
